Linux optc-01-05 4.15.0-58-generic #64-Ubuntu SMP Tue Aug 6 11:12:41 UTC 2019 x86_64 x86_64 x86_64 GNU/Linux

top - 02:24:44 up 1 day, 16:25,  0 users,  load average: 0,32, 0,78, 0,84
Tasks: 289 gesamt,   1 laufend, 149 schlafend,   0 gestoppt,   0 Zombie
%CPU(s):  6,8 be,  0,2 sy,  0,0 ni, 92,9 un,  0,0 wa,  0,0 hi,  0,0 si,  0,0 st
KiB Spch : 97514992 gesamt, 95513336 frei,   643428 belegt,  1358232 Puff/Cache
KiB Swap:  8388604 gesamt,  8388604 frei,        0 belegt. 96130448 verfü Spch 

  PID USER      PR  NI    VIRT    RES    SHR S  %CPU %MEM     ZEIT+ BEFEHL
21911 bzfhende  20   0   52664   4096   3348 R   6,2  0,0   0:00.01 top
    1 root      20   0  233864   9396   6684 S   0,0  0,0   0:13.49 systemd
    2 root      20   0       0      0      0 S   0,0  0,0   0:00.15 kthreadd
    3 root      20   0       0      0      0 I   0,0  0,0   0:01.90 kworker/0:0
    4 root       0 -20       0      0      0 I   0,0  0,0   0:00.00 kworker/0:+
    6 root      20   0       0      0      0 I   0,0  0,0   0:00.00 kworker/u3+
    7 root       0 -20       0      0      0 I   0,0  0,0   0:00.00 mm_percpu_+
    8 root      20   0       0      0      0 S   0,0  0,0   0:00.00 ksoftirqd/0

hard time limit: 04:10:00
hard mem limit: 55100

SLURM jobID: 2182834

@01 /nfs/optimi/kombadon/IP/coral/neos-932721.mps.gz ===========
-----------------------------
Fr 23. Aug 02:24:44 CEST 2019
-----------------------------
@03 1566519884
@05 7200
SCIP version 6.0.0 [precision: 8 byte] [memory: block] [mode: optimized] [LP solver: CPLEX 12.8.0.0] [GitHash: 41ab6e0014]
Copyright (C) 2002-2018 Konrad-Zuse-Zentrum fuer Informationstechnik Berlin (ZIB)

External codes: 
  Readline 7.0         GNU library for command line editing (gnu.org/s/readline)
  CPLEX 12.8.0.0       Linear Programming Solver developed by IBM (www.cplex.com)
  CppAD 20180000.0     Algorithmic Differentiation of C++ algorithms developed by B. Bell (www.coin-or.org/CppAD)
  ZLIB 1.2.11          General purpose compression library by J. Gailly and M. Adler (zlib.net)
  GMP 6.1.2            GNU Multiple Precision Arithmetic Library developed by T. Granlund (gmplib.org)
  bliss 0.73p          Computing Graph Automorphism Groups by T. Junttila and P. Kaski (http://www.tcs.hut.fi/Software/bliss/)

user parameter file <scip.set> not found - using default parameters

SCIP> 
SCIP> set load /home/optimi/bzfhende/opti/scip-opti/check/../settings/enable_treeeprofile.set
loaded parameter file </home/optimi/bzfhende/opti/scip-opti/check/../settings/enable_treeprofile.set>
SCIP> set misc referencevalue 52030
misc/referencevalue = 52030
SCIP> set limits time 7200
limits/time = 7200
SCIP> set limits nodes 2100000000
limits/nodes = 2100000000
SCIP> set limits memory 50000
limits/memory = 50000
SCIP> set lp advanced threads 1
lp/threads = 1
SCIP> set timing clocktype 1
timing/clocktype = 1
SCIP> set display freq 10000
display/freq = 10000
SCIP> set memory savefac 1.0
memory/savefac = 1
SCIP> set save /home/optimi/bzfhende/opti/scip-opti/check/treesize.estimation.jouurnal.3/bzfhende.MMMc.370_neos-932721.scip.M640.enable_treeprofile.set
saved parameter file </home/optimi/bzfhende/opti/scip-opti/check/treesize.estimation.journal.3/bzfhende.MMMc.370_neos-932721.scip.M640.enable_treeprofile.set>
SCIP> read /nfs/optimi/kombadon/IP/coral/neos-932721.mps.gz

read problem </nfs/optimi/kombadon/IP/coral/neos-932721.mps.gz>
============

Warning line 18089: row "R18087" for objective function "N" ignored
original problem has 22266 variables (21825 bin, 0 int, 0 impl, 441 cont) and 18085 constraints
SCIP> display parameters

number of parameters = 2448
non-default parameter settings:
display/freq = 10000
limits/time = 7200
limits/nodes = 2100000000
limits/memory = 50000
lp/threads = 1
memory/savefac = 1
misc/referencevalue = 52030
presolving/maxrestarts = 0
estimates/profile/enabled = TRUE
estimates/profile/maxdepthfactor = 10
estimates/profile/freq = 0

SCIP> optimize

Activating tree profile data collection
presolving:
(round 1, fast)       10778 del vars, 13325 del conss, 0 add conss, 0 chg bounds, 0 chg sides, 0 chg coeffs, 0 upgd conss, 0 impls, 2645 clqs
(round 2, fast)       14018 del vars, 14202 del conss, 0 add conss, 0 chg bounds, 0 chg sides, 0 chg coeffs, 0 upgd conss, 0 impls, 2115 clqs
(round 3, fast)       14018 del vars, 14202 del conss, 0 add conss, 148 chg bounds, 0 chg sides, 0 chg coeffs, 0 upgd conss, 0 impls, 2115 clqs
(round 4, exhaustive) 14018 del vars, 14202 del conss, 0 add conss, 148 chg bounds, 0 chg sides, 0 chg coeffs, 3737 upgd conss, 0 impls, 2115 clqs
(round 5, medium)     14288 del vars, 14337 del conss, 0 add conss, 148 chg bounds, 0 chg sides, 0 chg coeffs, 3737 upgd conss, 0 impls, 1800 clqs
(round 6, fast)       14426 del vars, 14550 del conss, 0 add conss, 151 chg bounds, 0 chg sides, 0 chg coeffs, 3737 upgd conss, 0 impls, 1800 clqs
(round 7, exhaustive) 15146 del vars, 15270 del conss, 0 add conss, 151 chg bounds, 0 chg sides, 0 chg coeffs, 3737 upgd conss, 0 impls, 1530 clqs
(round 8, fast)       17187 del vars, 15826 del conss, 0 add conss, 167 chg bounds, 0 chg sides, 0 chg coeffs, 3737 upgd conss, 0 impls, 1485 clqs
(round 9, exhaustive) 17212 del vars, 15826 del conss, 0 add conss, 167 chg bounds, 0 chg sides, 0 chg coeffs, 3737 upgd conss, 0 impls, 1460 clqs
(round 10, fast)       17212 del vars, 15851 del conss, 0 add conss, 167 chg bounds, 0 chg sides, 0 chg coeffs, 3737 upgd conss, 0 impls, 1460 clqs
(round 11, exhaustive) 17237 del vars, 15851 del conss, 0 add conss, 167 chg bounds, 0 chg sides, 0 chg coeffs, 3737 upgd conss, 0 impls, 1435 clqs
(round 12, fast)       17237 del vars, 15878 del conss, 1 add conss, 167 chg bounds, 0 chg sides, 0 chg coeffs, 3737 upgd conss, 0 impls, 1435 clqs
(round 13, exhaustive) 17262 del vars, 15878 del conss, 1 add conss, 167 chg bounds, 0 chg sides, 0 chg coeffs, 3737 upgd conss, 0 impls, 1410 clqs
(round 14, fast)       17262 del vars, 15911 del conss, 4 add conss, 167 chg bounds, 0 chg sides, 0 chg coeffs, 3737 upgd conss, 0 impls, 1410 clqs
(round 15, exhaustive) 17287 del vars, 15911 del conss, 4 add conss, 167 chg bounds, 0 chg sides, 0 chg coeffs, 3737 upgd conss, 0 impls, 1385 clqs
(round 16, fast)       17287 del vars, 15945 del conss, 5 add conss, 167 chg bounds, 0 chg sides, 0 chg coeffs, 3737 upgd conss, 0 impls, 1385 clqs
(round 17, exhaustive) 17312 del vars, 15945 del conss, 5 add conss, 168 chg bounds, 0 chg sides, 0 chg coeffs, 3737 upgd conss, 0 impls, 1361 clqs
(round 18, fast)       17312 del vars, 15971 del conss, 5 add conss, 168 chg bounds, 0 chg sides, 0 chg coeffs, 3737 upgd conss, 0 impls, 1361 clqs
   (0.3s) probing: 217/5807 (3.7%) - 138 fixings, 0 aggregations, 0 implications, 6 bound changes
   (0.3s) probing aborted: 50/50 successive totally useless probings
(round 19, exhaustive) 17325 del vars, 15971 del conss, 5 add conss, 173 chg bounds, 0 chg sides, 0 chg coeffs, 3737 upgd conss, 0 impls, 1350 clqs
(round 20, fast)       17325 del vars, 15982 del conss, 5 add conss, 173 chg bounds, 0 chg sides, 0 chg coeffs, 3737 upgd conss, 0 impls, 1350 clqs
   (0.3s) probing: 222/5807 (3.8%) - 138 fixings, 0 aggregations, 0 implications, 6 bound changes
   (0.3s) probing aborted: 50/50 successive totally useless probings
presolving (21 rounds: 21 fast, 10 medium, 9 exhaustive):
 17325 deleted vars, 15982 deleted constraints, 5 added constraints, 173 tightened bounds, 0 added holes, 0 changed sides, 0 changed coefficients
 0 implications, 1350 cliques
presolved problem has 5796 variables (5670 bin, 0 int, 126 impl, 0 cont) and 2106 constraints
    630 constraints of type <knapsack>
   1350 constraints of type <setppc>
    124 constraints of type <linear>
      2 constraints of type <logicor>
transformed objective value is always integral (scale: 1)
Presolving Time: 0.31

 time | node  | left  |LP iter|LP it/n| mem |mdpt |frac |vars |cons |cols |rows |cuts |confs|strbr|  dualbound   | primalbound  |  gap   
t 0.3s|     1 |     0 |     0 |     - |  89M|   0 |   - |5796 |2106 |   0 |   0 |   0 |   0 |   0 | 5.000000e+04 | 5.130000e+05 | 926.00%
Q 0.4s|     1 |     0 |     0 |     - |  94M|   0 |   - |5796 |2106 |5796 |2106 |   0 |   0 |   0 | 5.000000e+04 | 3.647000e+05 | 629.40%
k 0.4s|     1 |     0 |     0 |     - |  96M|   0 |   - |5796 |2106 |5796 |2106 |   0 |   0 |   0 | 5.000000e+04 | 3.596310e+05 | 619.26%
b 0.6s|     1 |     0 |     0 |     - | 106M|   0 |   - |5796 |2117 |5796 |2106 |   0 |  11 |   0 | 5.000000e+04 | 3.589040e+05 | 617.81%
  0.7s|     1 |     0 |  3300 |     - | 106M|   0 | 321 |5796 |2117 |5796 |2106 |   0 |  11 |   0 | 5.203000e+04 | 3.589040e+05 | 589.80%
s 0.7s|     1 |     0 |  3300 |     - | 106M|   0 | 321 |5796 |2106 |5796 |2106 |   0 |  11 |   0 | 5.203000e+04 | 6.098900e+04 |  17.22%
  0.8s|     1 |     0 |  3329 |     - | 109M|   0 | 352 |5796 |2106 |5796 |2107 |   1 |  11 |   0 | 5.203000e+04 | 6.098900e+04 |  17.22%
  0.8s|     1 |     0 |  3329 |     - | 109M|   0 | 352 |5796 |2106 |5796 |2107 |   1 |  11 |   0 | 5.203000e+04 | 6.098900e+04 |  17.22%
  0.8s|     1 |     0 |  3329 |     - | 109M|   0 | 352 |5796 |2106 |5796 |2107 |   1 |  11 |   0 | 5.203000e+04 | 6.098900e+04 |  17.22%
  0.9s|     1 |     0 |  3398 |     - | 109M|   0 | 335 |5796 |2106 |5796 |2109 |   3 |  11 |   0 | 5.203000e+04 | 6.098900e+04 |  17.22%
  0.9s|     1 |     0 |  3421 |     - | 110M|   0 | 316 |5796 |2106 |5796 |2110 |   4 |  11 |   0 | 5.203000e+04 | 6.098900e+04 |  17.22%
  1.0s|     1 |     0 |  3447 |     - | 110M|   0 | 289 |5796 |2106 |5796 |2111 |   5 |  11 |   0 | 5.203000e+04 | 6.098900e+04 |  17.22%
  1.0s|     1 |     0 |  3474 |     - | 110M|   0 | 288 |5796 |2106 |5796 |2112 |   6 |  11 |   0 | 5.203000e+04 | 6.098900e+04 |  17.22%
  1.1s|     1 |     0 |  3518 |     - | 111M|   0 | 258 |5796 |2106 |5796 |2113 |   7 |  11 |   0 | 5.203000e+04 | 6.098900e+04 |  17.22%
  1.1s|     1 |     0 |  3539 |     - | 111M|   0 | 246 |5796 |2106 |5796 |2114 |   8 |  11 |   0 | 5.203000e+04 | 6.098900e+04 |  17.22%
 time | node  | left  |LP iter|LP it/n| mem |mdpt |frac |vars |cons |cols |rows |cuts |confs|strbr|  dualbound   | primalbound  |  gap   
  1.1s|     1 |     0 |  3564 |     - | 111M|   0 | 204 |5796 |2106 |5796 |2115 |   9 |  11 |   0 | 5.203000e+04 | 6.098900e+04 |  17.22%
u 1.2s|     1 |     0 |  3578 |     - | 112M|   0 |   - |5796 |2106 |5796 |2115 |   0 |  11 |   0 | 5.203000e+04 | 5.203000e+04 |   0.00%
SCIP nodes: 1 Estimation: -1
  1.2s|     1 |     0 |  3578 |     - | 112M|   0 |   - |5796 |2106 |5796 |2115 |   9 |  11 |   0 | 5.203000e+04 | 5.203000e+04 |   0.00%
Report 1
Time Elapsed: 1.18
  Tree Data        : 1 nodes (1 visited, 0 inner, 1 leaves, 0 open), progress: 1.0000
Tree Estimation    :       estim       value       trend  resolution      smooth
  wbe              :          -1           -           -           -           -
  tree profile     :          -1           -           -           -           -
  gap              :           1     1.00000     1.00000           1           1
  progress         :           1     1.00000     1.00000           1           1
  leaf-frequency   :           1     0.50000     1.00000           1           1
  ssg              :           1     0.00000    -1.00000           1           1
  open-nodes       :           1     0.00000     0.00000           1           1
End of Report 1


SCIP Status        : problem is solved [optimal solution found]
Solving Time (sec) : 1.18
Solving Nodes      : 1
Primal Bound       : +5.20300000000000e+04 (6 solutions)
Dual Bound         : +5.20300000000000e+04
Gap                : 0.00 %

SCIP> display statistics

SCIP Status        : problem is solved [optimal solution found]
Total Time         :       1.25
  solving          :       1.18
  presolving       :       0.31 (included in solving)
  reading          :       0.07
  copying          :       0.00 (0 times copied the problem)
Original Problem   :
  Problem name     : file
  Variables        : 22266 (21825 binary, 0 integer, 0 implicit integer, 441 continuous)
  Constraints      : 18085 initial, 18085 maximal
  Objective        : minimize, 20286 non-zeros (abs.min = 1, abs.max = 1000)
Presolved Problem  :
  Problem name     : t_file
  Variables        : 5796 (5670 binary, 0 integer, 126 implicit integer, 0 continuous)
  Constraints      : 2106 initial, 2117 maximal
  Objective        : minimize, 5796 non-zeros (abs.min = 1, abs.max = 1000)
Presolvers         :   ExecTime  SetupTime  Calls  FixedVars   AggrVars   ChgTypes  ChgBounds   AddHoles    DelCons    AddCons   ChgSides   ChgCoefs
  boundshift       :       0.00       0.00      0          0          0          0          0          0          0          0          0          0
  convertinttobin  :       0.00       0.00      0          0          0          0          0          0          0          0          0          0
  domcol           :       0.02       0.00      7          0          0          0          0          0          0          0          0          0
  dualagg          :       0.00       0.00      0          0          0          0          0          0          0          0          0          0
  dualcomp         :       0.00       0.00      0          0          0          0          0          0          0          0          0          0
  dualinfer        :       0.00       0.00      0          0          0          0          0          0          0          0          0          0
  gateextraction   :       0.00       0.00      8          0          0          0          0          0          0          0          0          0
  implics          :       0.00       0.00     10          0          0          0          0          0          0          0          0          0
  inttobinary      :       0.00       0.00      0          0          0          0          0          0          0          0          0          0
  qpkktref         :       0.00       0.00      0          0          0          0          0          0          0          0          0          0
  redvub           :       0.00       0.00      0          0          0          0          0          0          0          0          0          0
  sparsify         :       0.01       0.00      2          0          0          0          0          0          0          0          0          0
  stuffing         :       0.00       0.00      0          0          0          0          0          0          0          0          0          0
  symbreak         :       0.00       0.00      0          0          0          0          0          0          0          0          0          0
  symmetry         :       0.00       0.00      0          0          0          0          0          0          0          0          0          0
  trivial          :       0.00       0.00     21        855          0          0          0          0          0          0          0          0
  tworowbnd        :       0.00       0.00      0          0          0          0          0          0          0          0          0          0
  dualfix          :       0.02       0.00     21      15323          0          0          0          0          0          0          0          0
  genvbounds       :       0.00       0.00      0          0          0          0          0          0          0          0          0          0
  orbitalfixing    :       0.00       0.00      0          0          0          0          0          0          0          0          0          0
  probing          :       0.08       0.00      7        138          0          0          6          0          0          0          0          0
  pseudoobj        :       0.00       0.00      0          0          0          0          0          0          0          0          0          0
  vbounds          :       0.00       0.00      1          0          0          0          0          0          0          0          0          0
  knapsack         :       0.02       0.00     34          0          0          0          0          0        270          5          0          0
  setppc           :       0.05       0.00     34          0        135          0          0          0        765          0          0          0
  linear           :       0.07       0.01     30         19          0          0        167          0      14222          0          0          0
  logicor          :       0.02       0.00     34        720          0          0          0          0        725          0          0          0
  bounddisjunction :       0.00       0.00      0          0          0          0          0          0          0          0          0          0
  benders          :       0.00       0.00      0          0          0          0          0          0          0          0          0          0
  components       :       0.00       0.00      1          0          0          0          0          0          0          0          0          0
  root node        :          -          -      -          0          -          -          6          -          -          -          -          -
Constraints        :     Number  MaxNumber  #Separate #Propagate    #EnfoLP    #EnfoRelax  #EnfoPS    #Check   #ResProp    Cutoffs    DomReds       Cuts    Applied      Conss   Children
  benderslp        :          0          0          0          0          0          0          0         24          0          0          0          0          0          0          0
  integral         :          0          0          0          0          0          0          0         24          0          0          0          0          0          0          0
  knapsack         :        630        630          9      16605          0          0          0         18          0          0          0          0          0          0          0
  setppc           :       1350       1350          9      16654          0          0          0         13       3818          0          0          0          0          0          0
  linear           :        124        124          9      16586          0          0          0         13        173          0          0          0          0          0          0
  logicor          :          2          2          9        128          0          0          0          6          2          0          0          0          0          0          0
  bounddisjunction :          0+        11          0         36          0          0          0          0          0          0          0          0          0          0          0
  benders          :          0          0          0          0          0          0          0          7          0          0          0          0          0          0          0
  countsols        :          0          0          0          0          0          0          0          7          0          0          0          0          0          0          0
  components       :          0          0          0          0          0          0          0          0          0          0          0          0          0          0          0
Constraint Timings :  TotalTime  SetupTime   Separate  Propagate     EnfoLP     EnfoPS     EnfoRelax   Check    ResProp    SB-Prop
  benderslp        :       0.00       0.00       0.00       0.00       0.00       0.00       0.00       0.00       0.00       0.00
  integral         :       0.00       0.00       0.00       0.00       0.00       0.00       0.00       0.00       0.00       0.00
  knapsack         :       0.02       0.00       0.01       0.00       0.00       0.00       0.00       0.01       0.00       0.00
  setppc           :       0.03       0.00       0.00       0.03       0.00       0.00       0.00       0.00       0.00       0.00
  linear           :       0.04       0.01       0.02       0.00       0.00       0.00       0.00       0.01       0.00       0.00
  logicor          :       0.00       0.00       0.00       0.00       0.00       0.00       0.00       0.00       0.00       0.00
  bounddisjunction :       0.00       0.00       0.00       0.00       0.00       0.00       0.00       0.00       0.00       0.00
  benders          :       0.00       0.00       0.00       0.00       0.00       0.00       0.00       0.00       0.00       0.00
  countsols        :       0.00       0.00       0.00       0.00       0.00       0.00       0.00       0.00       0.00       0.00
  components       :       0.00       0.00       0.00       0.00       0.00       0.00       0.00       0.00       0.00       0.00
Propagators        : #Propagate   #ResProp    Cutoffs    DomReds
  dualfix          :          3          0          0          0
  genvbounds       :          0          0          0          0
  nlobbt           :          0          0          0          0
  obbt             :          0          0          0          0
  orbitalfixing    :          0          0          0          0
  probing          :          0          0          0          0
  pseudoobj        :         17          0          0          2
  redcost          :         11          0          0          4
  rootredcost      :          0          0          0          0
  vbounds          :      16271          0          0          0
Propagator Timings :  TotalTime  SetupTime   Presolve  Propagate    ResProp    SB-Prop
  dualfix          :       0.02       0.00       0.02       0.00       0.00       0.00
  genvbounds       :       0.00       0.00       0.00       0.00       0.00       0.00
  nlobbt           :       0.00       0.00       0.00       0.00       0.00       0.00
  obbt             :       0.00       0.00       0.00       0.00       0.00       0.00
  orbitalfixing    :       0.00       0.00       0.00       0.00       0.00       0.00
  probing          :       0.08       0.00       0.08       0.00       0.00       0.00
  pseudoobj        :       0.00       0.00       0.00       0.00       0.00       0.00
  redcost          :       0.01       0.00       0.00       0.01       0.00       0.00
  rootredcost      :       0.01       0.00       0.00       0.01       0.00       0.00
  vbounds          :       0.00       0.00       0.00       0.00       0.00       0.00
Conflict Analysis  :       Time      Calls    Success    DomReds  Conflicts   Literals    Reconvs ReconvLits   Dualrays   Nonzeros   LP Iters   (pool size: [10000,10000])
  propagation      :       0.00          0          0          -          0        0.0          0        0.0          -          -          -
  infeasible LP    :       0.00          0          0          -          0        0.0          0        0.0          0        0.0          0
  bound exceed. LP :       0.04          2          2          -        451      644.2          0        0.0          0        0.0         20
  strong branching :       0.00          0          0          -          0        0.0          0        0.0          -          -          0
  pseudo solution  :       0.00          0          0          -          0        0.0          0        0.0          -          -          -
  applied globally :       0.00          -          -          0         11      210.2          -          -          0          -          -
  applied locally  :          -          -          -          0          0        0.0          -          -          0          -          -
Separators         :   ExecTime  SetupTime      Calls    Cutoffs    DomReds       Cuts    Applied      Conss
  cut pool         :       0.00                    17          -          -          9          -          -    (maximal pool size: 10)
  aggregation      :       0.00       0.00          9          0          0          0          0          0
  cgmip            :       0.00       0.00          0          0          0          0          0          0
  clique           :       0.05       0.00          9          0          0          0          0          0
  closecuts        :       0.00       0.00          0          0          0          0          0          0
  cmir             :       0.00       0.00          0          0          0          0          0          0
  convexproj       :       0.00       0.00          0          0          0          0          0          0
  disjunctive      :       0.00       0.00          0          0          0          0          0          0
  eccuts           :       0.00       0.00          0          0          0          0          0          0
  flowcover        :       0.00       0.00          0          0          0          0          0          0
  gauge            :       0.00       0.00          0          0          0          0          0          0
  gomory           :       0.11       0.00          9          0          0          0          0          0
  impliedbounds    :       0.00       0.00          9          0          0          0          0          0
  intobj           :       0.00       0.00          0          0          0          0          0          0
  mcf              :       0.00       0.00          1          0          0          0          0          0
  oddcycle         :       0.00       0.00          0          0          0          0          0          0
  rapidlearning    :       0.00       0.00          0          0          0          0          0          0
  strongcg         :       0.10       0.00          9          0          0          0          0          0
  zerohalf         :       0.06       0.00          9          0          0          0          9          0
Pricers            :   ExecTime  SetupTime      Calls       Vars
  problem variables:       0.00          -          0          0
Branching Rules    :   ExecTime  SetupTime   BranchLP  BranchExt   BranchPS    Cutoffs    DomReds       Cuts      Conss   Children
  allfullstrong    :       0.00       0.00          0          0          0          0          0          0          0          0
  cloud            :       0.00       0.00          0          0          0          0          0          0          0          0
  distribution     :       0.00       0.00          0          0          0          0          0          0          0          0
  fullstrong       :       0.00       0.00          0          0          0          0          0          0          0          0
  inference        :       0.00       0.00          0          0          0          0          0          0          0          0
  leastinf         :       0.00       0.00          0          0          0          0          0          0          0          0
  lookahead        :       0.00       0.00          0          0          0          0          0          0          0          0
  mostinf          :       0.00       0.00          0          0          0          0          0          0          0          0
  multaggr         :       0.00       0.00          0          0          0          0          0          0          0          0
  nodereopt        :       0.00       0.00          0          0          0          0          0          0          0          0
  pscost           :       0.00       0.00          0          0          0          0          0          0          0          0
  random           :       0.00       0.00          0          0          0          0          0          0          0          0
  relpscost        :       0.00       0.00          0          0          0          0          0          0          0          0
Primal Heuristics  :   ExecTime  SetupTime      Calls      Found       Best
  LP solutions     :       0.00          -          -          0          0
  relax solutions  :       0.00          -          -          0          0
  pseudo solutions :       0.00          -          -          0          0
  strong branching :       0.00          -          -          0          0
  actconsdiving    :       0.00       0.00          0          0          0
  alns             :       0.00       0.00          0          0          0
  bound            :       0.00       0.00          0          0          0
  clique           :       0.02       0.00          1          1          1
  coefdiving       :       0.00       0.00          0          0          0
  completesol      :       0.00       0.00          0          0          0
  conflictdiving   :       0.00       0.00          0          0          0
  crossover        :       0.00       0.00          0          0          0
  dins             :       0.00       0.00          0          0          0
  distributiondivin:       0.00       0.00          0          0          0
  dualval          :       0.00       0.00          0          0          0
  farkasdiving     :       0.00       0.00          1          1          1
  feaspump         :       0.00       0.00          0          0          0
  fixandinfer      :       0.00       0.00          0          0          0
  fracdiving       :       0.00       0.00          0          0          0
  gins             :       0.00       0.00          0          0          0
  guideddiving     :       0.00       0.00          0          0          0
  indicator        :       0.00       0.00          0          0          0
  intdiving        :       0.00       0.00          0          0          0
  intshifting      :       0.00       0.00          0          0          0
  linesearchdiving :       0.00       0.00          0          0          0
  localbranching   :       0.00       0.00          0          0          0
  locks            :       0.07       0.00          1          1          1
  lpface           :       0.00       0.00          0          0          0
  mpec             :       0.00       0.00          0          0          0
  multistart       :       0.00       0.00          0          0          0
  mutation         :       0.00       0.00          0          0          0
  nlpdiving        :       0.00       0.00          0          0          0
  objpscostdiving  :       0.00       0.00          0          0          0
  octane           :       0.00       0.00          0          0          0
  ofins            :       0.00       0.00          0          0          0
  oneopt           :       0.00       0.00          2          1          1
  proximity        :       0.00       0.00          0          0          0
  pscostdiving     :       0.00       0.00          0          0          0
  randrounding     :       0.04       0.00          9          0          0
  rens             :       0.00       0.00          0          0          0
  reoptsols        :       0.00       0.00          0          0          0
  repair           :       0.00       0.00          0          0          0
  rins             :       0.00       0.00          0          0          0
  rootsoldiving    :       0.00       0.00          0          0          0
  rounding         :       0.00       0.00          9          0          0
  shiftandpropagate:       0.00       0.00          0          0          0
  shifting         :       0.01       0.00          9          1          1
  simplerounding   :       0.00       0.00          0          0          0
  subnlp           :       0.00       0.00          0          0          0
  trivial          :       0.03       0.00          2          1          1
  trivialnegation  :       0.00       0.00          0          0          0
  trysol           :       0.00       0.00          0          0          0
  twoopt           :       0.00       0.00          0          0          0
  undercover       :       0.00       0.00          0          0          0
  vbounds          :       0.12       0.00          1          0          0
  veclendiving     :       0.00       0.00          0          0          0
  zeroobj          :       0.00       0.00          0          0          0
  zirounding       :       0.00       0.00          1          0          0
  other solutions  :          -          -          -          0          -
Diving Statistics  :      Calls      Nodes   LP Iters Backtracks  Conflicts   MinDepth   MaxDepth   AvgDepth  RoundSols  NLeafSols  MinSolDpt  MaxSolDpt  AvgSolDpt
  actconsdiving    :          0          -          -          -          -          -          -          -          -          -          -          -          -
  coefdiving       :          0          -          -          -          -          -          -          -          -          -          -          -          -
  conflictdiving   :          0          -          -          -          -          -          -          -          -          -          -          -          -
  distributiondivin:          0          -          -          -          -          -          -          -          -          -          -          -          -
  farkasdiving     :          1          1         14          0          0          2          2        2.0          0          1          2          2        2.0
  fracdiving       :          0          -          -          -          -          -          -          -          -          -          -          -          -
  guideddiving     :          0          -          -          -          -          -          -          -          -          -          -          -          -
  linesearchdiving :          0          -          -          -          -          -          -          -          -          -          -          -          -
  pscostdiving     :          0          -          -          -          -          -          -          -          -          -          -          -          -
  veclendiving     :          0          -          -          -          -          -          -          -          -          -          -          -          -
Neighborhoods      :      Calls  SetupTime  SolveTime SolveNodes       Sols       Best       Exp3  EpsGreedy        UCB TgtFixRate  Opt  Inf Node Stal  Sol  Usr Othr Actv
  rens             :          0       0.00       0.00          0          0          0    0.00000   -1.00000    1.00000      0.900    0    0    0    0    0    0    0    1
  rins             :          0       0.00       0.00          0          0          0    0.00000   -1.00000    1.00000      0.900    0    0    0    0    0    0    0    1
  mutation         :          0       0.00       0.00          0          0          0    0.00000   -1.00000    1.00000      0.900    0    0    0    0    0    0    0    1
  localbranching   :          0       0.00       0.00          0          0          0    0.00000   -1.00000    1.00000      0.900    0    0    0    0    0    0    0    1
  crossover        :          0       0.00       0.00          0          0          0    0.00000   -1.00000    1.00000      0.900    0    0    0    0    0    0    0    1
  proximity        :          0       0.00       0.00          0          0          0    0.00000   -1.00000    1.00000      0.900    0    0    0    0    0    0    0    1
  zeroobjective    :          0       0.00       0.00          0          0          0    0.00000   -1.00000    1.00000      0.900    0    0    0    0    0    0    0    1
  dins             :          0       0.00       0.00          0          0          0    0.00000   -1.00000    1.00000      0.900    0    0    0    0    0    0    0    1
LP                 :       Time      Calls Iterations  Iter/call   Iter/sec  Time-0-It Calls-0-It    ItLimit
  primal LP        :       0.00          0          0       0.00          -       0.00          0
  dual LP          :       0.17         11       3564     396.00   20964.71       0.00          2
  lex dual LP      :       0.00          0          0       0.00          -
  barrier LP       :       0.00          0          0       0.00          -       0.00          0
  resolve instable :       0.00          0          0       0.00          -
  diving/probing LP:       0.01          1         14      14.00    1400.00
  strong branching :       0.00          0          0       0.00          -          -          -          0
    (at root node) :          -          0          0       0.00          -
  conflict analysis:       0.00          2         20      10.00          -
B&B Tree           :
  number of runs   :          1
  nodes            :          1 (0 internal, 1 leaves)
  feasible leaves  :          0
  infeas. leaves   :          0
  objective leaves :          1
  nodes (total)    :          1 (0 internal, 1 leaves)
  nodes left       :          0
  max depth        :          0
  max depth (total):          0
  backtracks       :          0 (0.0%)
  early backtracks :          0 (0.0%)
  nodes exc. ref.  :          0 (0.0%)
  delayed cutoffs  :          0
  repropagations   :          0 (0 domain reductions, 0 cutoffs)
  avg switch length:       2.00
  switching time   :       0.00
Root Node          :
  First LP value   : +5.20300000000000e+04
  First LP Iters   :       3300 (23571.43 Iter/sec)
  First LP Time    :       0.14
  Final Dual Bound : +5.20300000000000e+04
  Final Root Iters :       3564
  Root LP Estimate :                     -
Solution           :
  Solutions found  :          6 (6 improvements)
  First Solution   : +5.13000000000000e+05   (in run 1, after 1 nodes, 0.34 seconds, depth 0, found by <trivial>)
  Gap First Sol.   :     926.00 %
  Gap Last Sol.    :       0.00 %
  Primal Bound     : +5.20300000000000e+04   (in run 1, after 1 nodes, 1.18 seconds, depth 2, found by <farkasdiving>)
  Dual Bound       : +5.20300000000000e+04
  Gap              :       0.00 %
  Avg. Gap         :      62.45 % (73.69 primal-dual integral)
  Tree Data        : 1 nodes (1 visited, 0 inner, 1 leaves, 0 open), progress: 1.0000
Tree Estimation    :       estim       value       trend  resolution      smooth
  wbe              :           1           -           -           -           -
  tree profile     :          -1           -           -           -           -
  gap              :           1     1.00000     1.00000           1           1
  progress         :           1     1.00000     1.00000           1           1
  leaf-frequency   :           1     0.50000     1.00000           1           1
  ssg              :           1     0.00000    -1.00000           1           1
  open-nodes       :           1     0.00000     0.00000           1           1


SCIP> checksol

check best solution
solution is feasible in original problem
Violation          :    absolute    relative
  bounds           : 0.00000e+00 0.00000e+00
  integrality      : 0.00000e+00           -
  LP rows          : 0.00000e+00 0.00000e+00
  constraints      : 0.00000e+00 0.00000e+00

SCIP> write sol /local/tmp/bzfhende-tmpdir/bzfhende.MMMc.370_neos-932721.scip.M6440.enable_treeprofile.sol

written solution information to file </local/tmp/bzfhende-tmpdir/bzfhende.MMMc.370_neos-932721.scip.M640.enable_treeprofile.sol>

SCIP> quit

Disabling tree profile data collection
Read MPS: 1
MIP has 22266 vars and 18085 constraints
Read SOL: 1
Objective value computed by solver: 52030

Integrality tolerance: 1/10000
Linear tolerance: 1/10000
Objective tolerance: 1/10000

Check SOL: Integrality 1 Constraints 1 Objective 1
Maximum violations: Integrality 0 Constraints 0 Objective 0
@04 1566519886
-----------------------------
Fr 23. Aug 02:24:46 CEST 2019
-----------------------------

=ready=
